%%%mzn-stat: initTime=0.04535406
%%%mzn-stat: objective=311
%%%mzn-stat: nodes=18552
%%%mzn-stat: restarts=10
%%%mzn-stat: peakDepth=517
%%%mzn-stat: solveTime=3.554962394
%%%mzn-stat: variables=1572
%%%mzn-stat: propagators=2426
%%%mzn-stat: failures=12395
%%%mzn-stat: propagations=3487665
%%%mzn-stat: nogoods=12395
%%%mzn-stat: AverageConflictSize=25.899314239612746
%%%mzn-stat: NumUnitNogoodsLearned=200
%%%mzn-stat: AverageLearnedNogoodLength=104.54731746672046
%%%mzn-stat: AverageBacktrackAmount=0
%%%mzn-stat: AverageLbd=16.725937878176683
%%%mzn-stat-end
maxleg = 311;
succ = array1d(1..50,[16, 25, 46, 2, 43, 37, 6, 10, 29, 41, 36, 47, 42, 20, 39, 24, 27, 9, 30, 48, 23, 35, 50, 33, 15, 11, 7, 38, 49, 5, 26, 14, 19, 13, 45, 8, 21, 22, 32, 28, 1, 18, 4, 34, 44, 17, 40, 12, 3, 31]);
% time elapsed: 3.95 s
----------
%%%mzn-stat: initTime=0.04535406
%%%mzn-stat: objective=310
%%%mzn-stat: nodes=19743
%%%mzn-stat: restarts=11
%%%mzn-stat: peakDepth=567
%%%mzn-stat: solveTime=3.659790663
%%%mzn-stat: variables=1572
%%%mzn-stat: propagators=2426
%%%mzn-stat: failures=12670
%%%mzn-stat: propagations=3602793
%%%mzn-stat: nogoods=12670
%%%mzn-stat: AverageConflictSize=25.638516179952646
%%%mzn-stat: NumUnitNogoodsLearned=200
%%%mzn-stat: AverageLearnedNogoodLength=103.90205209155485
%%%mzn-stat: AverageBacktrackAmount=0
%%%mzn-stat: AverageLbd=16.687134964483032
%%%mzn-stat-end
maxleg = 310;
succ = array1d(1..50,[16, 25, 46, 2, 43, 37, 6, 10, 29, 41, 36, 47, 42, 20, 39, 24, 27, 9, 30, 48, 23, 38, 50, 33, 15, 11, 7, 34, 49, 5, 26, 14, 19, 35, 45, 8, 21, 13, 32, 28, 1, 18, 4, 22, 44, 17, 40, 12, 3, 31]);
% time elapsed: 4.05 s
----------
%%%mzn-stat: initTime=0.04535406
%%%mzn-stat: objective=303
%%%mzn-stat: nodes=25891
%%%mzn-stat: restarts=15
%%%mzn-stat: peakDepth=567
%%%mzn-stat: solveTime=4.318735976
%%%mzn-stat: variables=1572
%%%mzn-stat: propagators=2426
%%%mzn-stat: failures=16682
%%%mzn-stat: propagations=4656961
%%%mzn-stat: nogoods=16682
%%%mzn-stat: AverageConflictSize=21.7680733724973
%%%mzn-stat: NumUnitNogoodsLearned=200
%%%mzn-stat: AverageLearnedNogoodLength=88.59633137513488
%%%mzn-stat: AverageBacktrackAmount=0
%%%mzn-stat: AverageLbd=15.200215801462654
%%%mzn-stat-end
maxleg = 303;
succ = array1d(1..50,[16, 25, 46, 5, 2, 37, 13, 10, 29, 41, 36, 47, 42, 32, 39, 24, 27, 3, 30, 6, 23, 38, 50, 33, 15, 11, 7, 34, 49, 9, 26, 43, 19, 35, 45, 8, 21, 14, 48, 28, 1, 40, 4, 22, 44, 17, 20, 12, 18, 31]);
% time elapsed: 4.71 s
----------
%%%mzn-stat: initTime=0.04535406
%%%mzn-stat: objective=294
%%%mzn-stat: nodes=27746
%%%mzn-stat: restarts=17
%%%mzn-stat: peakDepth=567
%%%mzn-stat: solveTime=4.437233298
%%%mzn-stat: variables=1572
%%%mzn-stat: propagators=2426
%%%mzn-stat: failures=17252
%%%mzn-stat: propagations=4825286
%%%mzn-stat: nogoods=17252
%%%mzn-stat: AverageConflictSize=21.394215163459307
%%%mzn-stat: NumUnitNogoodsLearned=200
%%%mzn-stat: AverageLearnedNogoodLength=86.99762346394621
%%%mzn-stat: AverageBacktrackAmount=0
%%%mzn-stat: AverageLbd=15.09181544168792
%%%mzn-stat-end
maxleg = 294;
succ = array1d(1..50,[16, 25, 46, 5, 2, 37, 13, 10, 29, 41, 36, 47, 14, 32, 39, 24, 42, 3, 30, 40, 23, 38, 50, 33, 15, 11, 7, 34, 49, 9, 26, 43, 19, 35, 45, 8, 21, 6, 48, 28, 1, 27, 4, 22, 44, 17, 20, 12, 18, 31]);
% time elapsed: 4.84 s
----------
%%%mzn-stat: initTime=0.04535406
%%%mzn-stat: objective=293
%%%mzn-stat: nodes=30210
%%%mzn-stat: restarts=19
%%%mzn-stat: peakDepth=567
%%%mzn-stat: solveTime=4.627495183
%%%mzn-stat: variables=1572
%%%mzn-stat: propagators=2426
%%%mzn-stat: failures=18124
%%%mzn-stat: propagations=5056918
%%%mzn-stat: nogoods=18124
%%%mzn-stat: AverageConflictSize=21.052747737806225
%%%mzn-stat: NumUnitNogoodsLearned=200
%%%mzn-stat: AverageLearnedNogoodLength=85.41458839108364
%%%mzn-stat: AverageBacktrackAmount=0
%%%mzn-stat: AverageLbd=15.03669167954094
%%%mzn-stat-end
maxleg = 293;
succ = array1d(1..50,[16, 25, 46, 5, 2, 37, 13, 10, 29, 41, 36, 47, 14, 32, 39, 30, 42, 9, 1, 40, 23, 38, 50, 49, 15, 11, 7, 34, 3, 24, 26, 43, 19, 35, 45, 8, 21, 6, 48, 28, 33, 27, 4, 22, 44, 17, 20, 12, 18, 31]);
% time elapsed: 5.02 s
----------
%%%mzn-stat: initTime=0.04535406
%%%mzn-stat: objective=292
%%%mzn-stat: nodes=31080
%%%mzn-stat: restarts=20
%%%mzn-stat: peakDepth=567
%%%mzn-stat: solveTime=4.668598218
%%%mzn-stat: variables=1572
%%%mzn-stat: propagators=2426
%%%mzn-stat: failures=18243
%%%mzn-stat: propagations=5107832
%%%mzn-stat: nogoods=18243
%%%mzn-stat: AverageConflictSize=21.016663925889382
%%%mzn-stat: NumUnitNogoodsLearned=200
%%%mzn-stat: AverageLearnedNogoodLength=85.29446911144001
%%%mzn-stat: AverageBacktrackAmount=0
%%%mzn-stat: AverageLbd=15.038754590801952
%%%mzn-stat-end
maxleg = 292;
succ = array1d(1..50,[16, 25, 46, 5, 2, 37, 13, 10, 29, 41, 36, 47, 14, 32, 39, 30, 42, 9, 1, 40, 23, 38, 50, 49, 15, 11, 7, 34, 3, 24, 26, 43, 19, 35, 45, 8, 21, 6, 48, 28, 33, 27, 4, 22, 44, 17, 20, 12, 18, 31]);
% time elapsed: 5.07 s
----------
%%%mzn-stat: initTime=0.04535406
%%%mzn-stat: objective=291
%%%mzn-stat: nodes=32115
%%%mzn-stat: restarts=21
%%%mzn-stat: peakDepth=567
%%%mzn-stat: solveTime=4.732536935
%%%mzn-stat: variables=1572
%%%mzn-stat: propagators=2426
%%%mzn-stat: failures=18459
%%%mzn-stat: propagations=5176443
%%%mzn-stat: nogoods=18459
%%%mzn-stat: AverageConflictSize=20.934774364808494
%%%mzn-stat: NumUnitNogoodsLearned=200
%%%mzn-stat: AverageLearnedNogoodLength=84.98033479603446
%%%mzn-stat: AverageBacktrackAmount=0
%%%mzn-stat: AverageLbd=15.032829514058182
%%%mzn-stat-end
maxleg = 291;
succ = array1d(1..50,[16, 25, 46, 5, 2, 37, 35, 10, 29, 41, 36, 47, 14, 32, 39, 30, 42, 9, 1, 40, 23, 38, 50, 49, 15, 11, 7, 34, 3, 24, 26, 43, 19, 6, 45, 8, 21, 13, 48, 28, 33, 27, 4, 22, 44, 17, 20, 12, 18, 31]);
% time elapsed: 5.13 s
----------
%%%mzn-stat: initTime=0.04535406
%%%mzn-stat: objective=287
%%%mzn-stat: nodes=33091
%%%mzn-stat: restarts=22
%%%mzn-stat: peakDepth=567
%%%mzn-stat: solveTime=4.792991215
%%%mzn-stat: variables=1572
%%%mzn-stat: propagators=2426
%%%mzn-stat: failures=18656
%%%mzn-stat: propagations=5245879
%%%mzn-stat: nogoods=18656
%%%mzn-stat: AverageConflictSize=20.862296312178387
%%%mzn-stat: NumUnitNogoodsLearned=200
%%%mzn-stat: AverageLearnedNogoodLength=84.60366638078902
%%%mzn-stat: AverageBacktrackAmount=0
%%%mzn-stat: AverageLbd=15.004073756432247
%%%mzn-stat-end
maxleg = 287;
succ = array1d(1..50,[16, 25, 46, 5, 2, 37, 35, 10, 29, 41, 36, 47, 14, 40, 39, 30, 42, 9, 1, 28, 23, 38, 50, 49, 15, 11, 7, 34, 3, 24, 26, 43, 19, 6, 45, 8, 21, 13, 12, 48, 33, 27, 4, 22, 44, 17, 20, 32, 18, 31]);
% time elapsed: 5.20 s
----------
%%%mzn-stat: initTime=0.04535406
%%%mzn-stat: objective=286
%%%mzn-stat: nodes=34198
%%%mzn-stat: restarts=23
%%%mzn-stat: peakDepth=567
%%%mzn-stat: solveTime=4.855138376
%%%mzn-stat: variables=1572
%%%mzn-stat: propagators=2426
%%%mzn-stat: failures=18935
%%%mzn-stat: propagations=5332095
%%%mzn-stat: nogoods=18935
%%%mzn-stat: AverageConflictSize=20.68946395563771
%%%mzn-stat: NumUnitNogoodsLearned=200
%%%mzn-stat: AverageLearnedNogoodLength=83.86770530763137
%%%mzn-stat: AverageBacktrackAmount=0
%%%mzn-stat: AverageLbd=14.948508053868498
%%%mzn-stat-end
maxleg = 286;
succ = array1d(1..50,[16, 25, 46, 5, 2, 48, 35, 10, 29, 41, 36, 47, 14, 20, 39, 30, 42, 9, 1, 28, 23, 34, 50, 49, 15, 11, 7, 37, 3, 24, 26, 43, 19, 6, 45, 8, 21, 13, 12, 38, 33, 27, 4, 22, 44, 17, 40, 32, 18, 31]);
% time elapsed: 5.26 s
----------
%%%mzn-stat: initTime=0.04535406
%%%mzn-stat: objective=285
%%%mzn-stat: nodes=36206
%%%mzn-stat: restarts=27
%%%mzn-stat: peakDepth=567
%%%mzn-stat: solveTime=5.039718386
%%%mzn-stat: variables=1572
%%%mzn-stat: propagators=2426
%%%mzn-stat: failures=19789
%%%mzn-stat: propagations=5574179
%%%mzn-stat: nogoods=19789
%%%mzn-stat: AverageConflictSize=20.33559047955935
%%%mzn-stat: NumUnitNogoodsLearned=200
%%%mzn-stat: AverageLearnedNogoodLength=82.42023346303502
%%%mzn-stat: AverageBacktrackAmount=0
%%%mzn-stat: AverageLbd=14.830259234928496
%%%mzn-stat-end
maxleg = 285;
succ = array1d(1..50,[16, 25, 46, 5, 2, 48, 35, 10, 29, 41, 36, 47, 14, 20, 39, 30, 42, 3, 1, 28, 23, 34, 50, 9, 15, 11, 7, 37, 49, 24, 26, 43, 19, 6, 45, 8, 21, 13, 12, 38, 33, 27, 4, 22, 44, 17, 40, 32, 18, 31]);
% time elapsed: 5.45 s
----------
%%%mzn-stat: initTime=0.04535406
%%%mzn-stat: objective=284
%%%mzn-stat: nodes=36969
%%%mzn-stat: restarts=28
%%%mzn-stat: peakDepth=567
%%%mzn-stat: solveTime=5.070676669
%%%mzn-stat: variables=1572
%%%mzn-stat: propagators=2426
%%%mzn-stat: failures=19842
%%%mzn-stat: propagations=5597482
%%%mzn-stat: nogoods=19842
%%%mzn-stat: AverageConflictSize=20.347142425158754
%%%mzn-stat: NumUnitNogoodsLearned=200
%%%mzn-stat: AverageLearnedNogoodLength=82.40756980143131
%%%mzn-stat: AverageBacktrackAmount=0
%%%mzn-stat: AverageLbd=14.840137082955348
%%%mzn-stat-end
maxleg = 284;
succ = array1d(1..50,[16, 25, 46, 5, 2, 48, 35, 10, 29, 41, 36, 47, 14, 20, 39, 30, 42, 3, 1, 28, 23, 34, 50, 9, 15, 11, 7, 37, 49, 24, 26, 43, 19, 6, 45, 8, 21, 13, 12, 38, 33, 27, 4, 22, 44, 17, 40, 32, 18, 31]);
% time elapsed: 5.48 s
----------
%%%mzn-stat: initTime=0.04535406
%%%mzn-stat: objective=283
%%%mzn-stat: nodes=38931
%%%mzn-stat: restarts=29
%%%mzn-stat: peakDepth=567
%%%mzn-stat: solveTime=5.388615438
%%%mzn-stat: variables=1572
%%%mzn-stat: propagators=2426
%%%mzn-stat: failures=20879
%%%mzn-stat: propagations=5874809
%%%mzn-stat: nogoods=20879
%%%mzn-stat: AverageConflictSize=20.666650701661958
%%%mzn-stat: NumUnitNogoodsLearned=200
%%%mzn-stat: AverageLearnedNogoodLength=83.47114325398726
%%%mzn-stat: AverageBacktrackAmount=0
%%%mzn-stat: AverageLbd=14.821686862397625
%%%mzn-stat-end
maxleg = 283;
succ = array1d(1..50,[16, 25, 46, 5, 2, 48, 35, 10, 29, 41, 36, 47, 14, 20, 39, 30, 42, 3, 1, 28, 23, 34, 50, 9, 15, 11, 7, 37, 49, 24, 26, 43, 19, 6, 45, 8, 21, 13, 12, 38, 33, 27, 4, 22, 44, 17, 40, 32, 18, 31]);
% time elapsed: 5.80 s
----------
%%%mzn-stat: initTime=0.04535406
%%%mzn-stat: objective=282
%%%mzn-stat: nodes=39716
%%%mzn-stat: restarts=30
%%%mzn-stat: peakDepth=567
%%%mzn-stat: solveTime=5.419851586
%%%mzn-stat: variables=1572
%%%mzn-stat: propagators=2426
%%%mzn-stat: failures=20931
%%%mzn-stat: propagations=5903910
%%%mzn-stat: nogoods=20931
%%%mzn-stat: AverageConflictSize=20.658019205962447
%%%mzn-stat: NumUnitNogoodsLearned=200
%%%mzn-stat: AverageLearnedNogoodLength=83.475705890784
%%%mzn-stat: AverageBacktrackAmount=0
%%%mzn-stat: AverageLbd=14.835698246619847
%%%mzn-stat-end
maxleg = 282;
succ = array1d(1..50,[16, 25, 46, 5, 2, 48, 35, 10, 29, 41, 36, 47, 14, 20, 39, 30, 42, 3, 1, 28, 23, 34, 50, 9, 15, 11, 7, 37, 49, 24, 26, 43, 19, 6, 45, 8, 21, 13, 12, 38, 33, 27, 4, 22, 44, 17, 40, 32, 18, 31]);
% time elapsed: 5.84 s
----------
%%%mzn-stat: initTime=0.04535406
%%%mzn-stat: objective=281
%%%mzn-stat: nodes=41822
%%%mzn-stat: restarts=31
%%%mzn-stat: peakDepth=567
%%%mzn-stat: solveTime=5.620575451
%%%mzn-stat: variables=1572
%%%mzn-stat: propagators=2426
%%%mzn-stat: failures=21682
%%%mzn-stat: propagations=6113124
%%%mzn-stat: nogoods=21682
%%%mzn-stat: AverageConflictSize=20.617470713033853
%%%mzn-stat: NumUnitNogoodsLearned=200
%%%mzn-stat: AverageLearnedNogoodLength=82.9479752790333
%%%mzn-stat: AverageBacktrackAmount=0
%%%mzn-stat: AverageLbd=14.707776035421087
%%%mzn-stat-end
maxleg = 281;
succ = array1d(1..50,[16, 25, 46, 5, 2, 48, 35, 10, 29, 41, 36, 47, 14, 20, 39, 30, 42, 3, 1, 28, 23, 34, 50, 9, 15, 11, 7, 37, 49, 24, 26, 43, 19, 6, 45, 8, 21, 13, 12, 38, 33, 27, 4, 22, 44, 17, 40, 32, 18, 31]);
% time elapsed: 6.04 s
----------
%%%mzn-stat: initTime=0.04535406
%%%mzn-stat: objective=280
%%%mzn-stat: nodes=42720
%%%mzn-stat: restarts=32
%%%mzn-stat: peakDepth=567
%%%mzn-stat: solveTime=5.668929994
%%%mzn-stat: variables=1572
%%%mzn-stat: propagators=2426
%%%mzn-stat: failures=21809
%%%mzn-stat: propagations=6157381
%%%mzn-stat: nogoods=21809
%%%mzn-stat: AverageConflictSize=20.589022880462196
%%%mzn-stat: NumUnitNogoodsLearned=200
%%%mzn-stat: AverageLearnedNogoodLength=82.90939520381494
%%%mzn-stat: AverageBacktrackAmount=0
%%%mzn-stat: AverageLbd=14.71209133843826
%%%mzn-stat-end
maxleg = 280;
succ = array1d(1..50,[16, 25, 46, 5, 2, 48, 35, 10, 29, 41, 36, 47, 14, 20, 39, 30, 42, 3, 1, 28, 23, 34, 50, 9, 15, 11, 7, 37, 49, 24, 26, 43, 19, 6, 45, 8, 21, 13, 12, 38, 33, 27, 4, 22, 44, 17, 40, 32, 18, 31]);
% time elapsed: 6.09 s
----------
%%%mzn-stat: initTime=0.04535406
%%%mzn-stat: objective=277
%%%mzn-stat: nodes=43888
%%%mzn-stat: restarts=33
%%%mzn-stat: peakDepth=567
%%%mzn-stat: solveTime=5.753747541
%%%mzn-stat: variables=1572
%%%mzn-stat: propagators=2426
%%%mzn-stat: failures=22068
%%%mzn-stat: propagations=6256200
%%%mzn-stat: nogoods=22068
%%%mzn-stat: AverageConflictSize=20.631276055827442
%%%mzn-stat: NumUnitNogoodsLearned=200
%%%mzn-stat: AverageLearnedNogoodLength=82.9047942722494
%%%mzn-stat: AverageBacktrackAmount=0
%%%mzn-stat: AverageLbd=14.71510784846837
%%%mzn-stat-end
maxleg = 277;
succ = array1d(1..50,[16, 25, 46, 5, 15, 50, 35, 10, 29, 41, 36, 47, 7, 13, 39, 30, 42, 3, 1, 14, 23, 34, 48, 9, 4, 11, 28, 37, 49, 24, 26, 43, 19, 6, 45, 8, 21, 20, 12, 38, 33, 27, 2, 22, 44, 17, 40, 32, 18, 31]);
% time elapsed: 6.18 s
----------
%%%mzn-stat: initTime=0.04535406
%%%mzn-stat: objective=274
%%%mzn-stat: nodes=45329
%%%mzn-stat: restarts=35
%%%mzn-stat: peakDepth=567
%%%mzn-stat: solveTime=5.8305346799999995
%%%mzn-stat: variables=1572
%%%mzn-stat: propagators=2426
%%%mzn-stat: failures=22288
%%%mzn-stat: propagations=6339423
%%%mzn-stat: nogoods=22288
%%%mzn-stat: AverageConflictSize=20.596599066762384
%%%mzn-stat: NumUnitNogoodsLearned=200
%%%mzn-stat: AverageLearnedNogoodLength=82.7473528356066
%%%mzn-stat: AverageBacktrackAmount=0
%%%mzn-stat: AverageLbd=14.725457645369705
%%%mzn-stat-end
maxleg = 274;
succ = array1d(1..50,[16, 25, 31, 5, 15, 50, 35, 10, 29, 41, 36, 47, 7, 13, 39, 30, 42, 3, 1, 14, 23, 34, 48, 9, 4, 11, 28, 37, 49, 24, 26, 43, 19, 6, 45, 8, 21, 20, 12, 38, 33, 27, 2, 22, 44, 17, 40, 32, 46, 18]);
% time elapsed: 6.26 s
----------
%%%mzn-stat: initTime=0.04535406
%%%mzn-stat: objective=273
%%%mzn-stat: nodes=46070
%%%mzn-stat: restarts=36
%%%mzn-stat: peakDepth=567
%%%mzn-stat: solveTime=5.860429072
%%%mzn-stat: variables=1572
%%%mzn-stat: propagators=2426
%%%mzn-stat: failures=22338
%%%mzn-stat: propagations=6362862
%%%mzn-stat: nogoods=22338
%%%mzn-stat: AverageConflictSize=20.636001432536485
%%%mzn-stat: NumUnitNogoodsLearned=200
%%%mzn-stat: AverageLearnedNogoodLength=82.84689766317486
%%%mzn-stat: AverageBacktrackAmount=0
%%%mzn-stat: AverageLbd=14.737487689139583
%%%mzn-stat-end
maxleg = 273;
succ = array1d(1..50,[16, 25, 31, 5, 15, 50, 35, 10, 29, 30, 36, 47, 7, 13, 39, 41, 42, 3, 1, 14, 23, 34, 48, 9, 4, 11, 28, 37, 49, 33, 26, 43, 19, 6, 45, 8, 21, 20, 12, 38, 24, 27, 2, 22, 44, 17, 40, 32, 46, 18]);
% time elapsed: 6.29 s
----------
%%%mzn-stat: initTime=0.04535406
%%%mzn-stat: objective=272
%%%mzn-stat: nodes=46934
%%%mzn-stat: restarts=37
%%%mzn-stat: peakDepth=567
%%%mzn-stat: solveTime=5.911403271
%%%mzn-stat: variables=1572
%%%mzn-stat: propagators=2426
%%%mzn-stat: failures=22428
%%%mzn-stat: propagations=6420596
%%%mzn-stat: nogoods=22428
%%%mzn-stat: AverageConflictSize=20.616550740146245
%%%mzn-stat: NumUnitNogoodsLearned=200
%%%mzn-stat: AverageLearnedNogoodLength=82.87997146424112
%%%mzn-stat: AverageBacktrackAmount=0
%%%mzn-stat: AverageLbd=14.755885500267523
%%%mzn-stat-end
maxleg = 272;
succ = array1d(1..50,[16, 25, 31, 5, 15, 50, 35, 10, 29, 30, 36, 47, 7, 13, 39, 41, 42, 3, 1, 14, 23, 34, 48, 9, 4, 11, 28, 37, 49, 33, 26, 43, 19, 6, 45, 8, 21, 20, 12, 38, 24, 27, 2, 22, 44, 17, 40, 32, 46, 18]);
% time elapsed: 6.35 s
----------
%%%mzn-stat: initTime=0.04535406
%%%mzn-stat: objective=271
%%%mzn-stat: nodes=47756
%%%mzn-stat: restarts=38
%%%mzn-stat: peakDepth=567
%%%mzn-stat: solveTime=5.94384284
%%%mzn-stat: variables=1572
%%%mzn-stat: propagators=2426
%%%mzn-stat: failures=22496
%%%mzn-stat: propagations=6452547
%%%mzn-stat: nogoods=22496
%%%mzn-stat: AverageConflictSize=20.6097972972973
%%%mzn-stat: NumUnitNogoodsLearned=200
%%%mzn-stat: AverageLearnedNogoodLength=82.8725106685633
%%%mzn-stat: AverageBacktrackAmount=0
%%%mzn-stat: AverageLbd=14.763068990042674
%%%mzn-stat-end
maxleg = 271;
succ = array1d(1..50,[16, 25, 31, 5, 15, 50, 35, 10, 29, 30, 36, 47, 7, 13, 39, 41, 42, 3, 1, 14, 23, 34, 48, 9, 4, 11, 28, 37, 49, 33, 26, 43, 19, 6, 45, 8, 21, 20, 12, 38, 24, 27, 2, 22, 44, 17, 40, 32, 46, 18]);
% time elapsed: 6.38 s
----------
%%%mzn-stat: initTime=0.04535406
%%%mzn-stat: objective=270
%%%mzn-stat: nodes=51175
%%%mzn-stat: restarts=40
%%%mzn-stat: peakDepth=567
%%%mzn-stat: solveTime=6.310474346
%%%mzn-stat: variables=1572
%%%mzn-stat: propagators=2426
%%%mzn-stat: failures=24290
%%%mzn-stat: propagations=6940846
%%%mzn-stat: nogoods=24290
%%%mzn-stat: AverageConflictSize=20.17027583367641
%%%mzn-stat: NumUnitNogoodsLearned=200
%%%mzn-stat: AverageLearnedNogoodLength=80.3947303417044
%%%mzn-stat: AverageBacktrackAmount=0
%%%mzn-stat: AverageLbd=14.45129682997118
%%%mzn-stat-end
maxleg = 270;
succ = array1d(1..50,[16, 25, 31, 5, 15, 50, 35, 10, 29, 30, 36, 47, 7, 13, 39, 41, 27, 3, 1, 14, 23, 34, 48, 9, 4, 11, 28, 42, 49, 33, 26, 43, 19, 6, 45, 8, 21, 20, 12, 38, 24, 37, 2, 22, 44, 17, 40, 32, 46, 18]);
% time elapsed: 6.75 s
----------
%%%mzn-stat: initTime=0.04535406
%%%mzn-stat: objective=269
%%%mzn-stat: nodes=51873
%%%mzn-stat: restarts=41
%%%mzn-stat: peakDepth=567
%%%mzn-stat: solveTime=6.344254695
%%%mzn-stat: variables=1572
%%%mzn-stat: propagators=2426
%%%mzn-stat: failures=24342
%%%mzn-stat: propagations=6962524
%%%mzn-stat: nogoods=24342
%%%mzn-stat: AverageConflictSize=20.164735847506368
%%%mzn-stat: NumUnitNogoodsLearned=200
%%%mzn-stat: AverageLearnedNogoodLength=80.52173198586804
%%%mzn-stat: AverageBacktrackAmount=0
%%%mzn-stat: AverageLbd=14.467134993016186
%%%mzn-stat-end
maxleg = 269;
succ = array1d(1..50,[16, 25, 31, 5, 15, 50, 35, 10, 29, 30, 36, 47, 7, 13, 39, 41, 27, 3, 1, 14, 23, 34, 48, 9, 4, 11, 28, 42, 49, 33, 26, 43, 19, 6, 45, 8, 21, 20, 12, 38, 24, 37, 2, 22, 44, 17, 40, 32, 46, 18]);
% time elapsed: 6.79 s
----------
%%%mzn-stat: initTime=0.04535406
%%%mzn-stat: objective=268
%%%mzn-stat: nodes=52932
%%%mzn-stat: restarts=42
%%%mzn-stat: peakDepth=567
%%%mzn-stat: solveTime=6.438145997
%%%mzn-stat: variables=1572
%%%mzn-stat: propagators=2426
%%%mzn-stat: failures=24725
%%%mzn-stat: propagations=7058666
%%%mzn-stat: nogoods=24725
%%%mzn-stat: AverageConflictSize=20.043842264914055
%%%mzn-stat: NumUnitNogoodsLearned=200
%%%mzn-stat: AverageLearnedNogoodLength=80.24052578361982
%%%mzn-stat: AverageBacktrackAmount=0
%%%mzn-stat: AverageLbd=14.468958543983822
%%%mzn-stat-end
maxleg = 268;
succ = array1d(1..50,[16, 25, 31, 5, 15, 50, 35, 10, 29, 30, 36, 47, 7, 13, 39, 41, 27, 3, 1, 14, 23, 34, 48, 9, 4, 11, 28, 42, 49, 33, 26, 43, 19, 6, 45, 8, 21, 20, 12, 38, 24, 37, 2, 22, 44, 17, 40, 32, 46, 18]);
% time elapsed: 6.88 s
----------
%%%mzn-stat: initTime=0.04535406
%%%mzn-stat: objective=263
%%%mzn-stat: nodes=55057
%%%mzn-stat: restarts=44
%%%mzn-stat: peakDepth=567
%%%mzn-stat: solveTime=6.681473265
%%%mzn-stat: variables=1572
%%%mzn-stat: propagators=2426
%%%mzn-stat: failures=25665
%%%mzn-stat: propagations=7312968
%%%mzn-stat: nogoods=25665
%%%mzn-stat: AverageConflictSize=20.0375219170076
%%%mzn-stat: NumUnitNogoodsLearned=200
%%%mzn-stat: AverageLearnedNogoodLength=79.97405026300409
%%%mzn-stat: AverageBacktrackAmount=0
%%%mzn-stat: AverageLbd=14.417689460354568
%%%mzn-stat-end
maxleg = 263;
succ = array1d(1..50,[16, 25, 31, 5, 15, 50, 6, 10, 29, 30, 36, 47, 34, 13, 39, 41, 27, 3, 1, 14, 23, 35, 48, 9, 4, 11, 28, 42, 49, 33, 26, 43, 19, 45, 7, 8, 21, 20, 12, 38, 24, 37, 2, 22, 44, 17, 40, 32, 46, 18]);
% time elapsed: 7.13 s
----------
%%%mzn-stat: initTime=0.04535406
%%%mzn-stat: objective=261
%%%mzn-stat: nodes=55924
%%%mzn-stat: restarts=45
%%%mzn-stat: peakDepth=567
%%%mzn-stat: solveTime=6.715502415
%%%mzn-stat: variables=1572
%%%mzn-stat: propagators=2426
%%%mzn-stat: failures=25760
%%%mzn-stat: propagations=7344098
%%%mzn-stat: nogoods=25760
%%%mzn-stat: AverageConflictSize=20.03264751552795
%%%mzn-stat: NumUnitNogoodsLearned=200
%%%mzn-stat: AverageLearnedNogoodLength=79.91933229813665
%%%mzn-stat: AverageBacktrackAmount=0
%%%mzn-stat: AverageLbd=14.421040372670808
%%%mzn-stat-end
maxleg = 261;
succ = array1d(1..50,[16, 25, 31, 5, 15, 50, 44, 10, 29, 30, 36, 32, 34, 13, 12, 41, 27, 3, 1, 6, 23, 35, 48, 9, 4, 11, 28, 42, 49, 33, 26, 14, 19, 45, 38, 8, 21, 20, 43, 47, 24, 37, 2, 22, 7, 17, 39, 40, 46, 18]);
% time elapsed: 7.17 s
----------
%%%mzn-stat: initTime=0.04535406
%%%mzn-stat: objective=260
%%%mzn-stat: nodes=56511
%%%mzn-stat: restarts=46
%%%mzn-stat: peakDepth=567
%%%mzn-stat: solveTime=6.7341824930000005
%%%mzn-stat: variables=1572
%%%mzn-stat: propagators=2426
%%%mzn-stat: failures=25808
%%%mzn-stat: propagations=7359376
%%%mzn-stat: nogoods=25808
%%%mzn-stat: AverageConflictSize=20.023868567885927
%%%mzn-stat: NumUnitNogoodsLearned=200
%%%mzn-stat: AverageLearnedNogoodLength=79.91394141351519
%%%mzn-stat: AverageBacktrackAmount=0
%%%mzn-stat: AverageLbd=14.428781773093615
%%%mzn-stat-end
maxleg = 260;
succ = array1d(1..50,[16, 25, 31, 2, 4, 50, 44, 10, 29, 30, 36, 32, 34, 13, 5, 41, 27, 3, 1, 6, 23, 35, 48, 9, 43, 11, 28, 42, 49, 33, 26, 14, 19, 45, 38, 8, 21, 20, 15, 47, 24, 37, 12, 22, 7, 17, 39, 40, 46, 18]);
% time elapsed: 7.19 s
----------
%%%mzn-stat: initTime=0.04535406
%%%mzn-stat: objective=258
%%%mzn-stat: nodes=57359
%%%mzn-stat: restarts=47
%%%mzn-stat: peakDepth=567
%%%mzn-stat: solveTime=6.761693327
%%%mzn-stat: variables=1572
%%%mzn-stat: propagators=2426
%%%mzn-stat: failures=25895
%%%mzn-stat: propagations=7392411
%%%mzn-stat: nogoods=25895
%%%mzn-stat: AverageConflictSize=20.007028383857886
%%%mzn-stat: NumUnitNogoodsLearned=200
%%%mzn-stat: AverageLearnedNogoodLength=79.86568835682564
%%%mzn-stat: AverageBacktrackAmount=0
%%%mzn-stat: AverageLbd=14.434485421896118
%%%mzn-stat-end
maxleg = 258;
succ = array1d(1..50,[16, 25, 31, 2, 4, 50, 6, 10, 29, 30, 36, 32, 34, 13, 5, 41, 27, 3, 1, 47, 23, 35, 48, 9, 43, 11, 28, 42, 49, 33, 26, 14, 19, 44, 38, 8, 21, 45, 15, 20, 24, 37, 12, 22, 7, 17, 39, 40, 46, 18]);
% time elapsed: 7.21 s
----------
%%%mzn-stat: initTime=0.04535406
%%%mzn-stat: objective=255
%%%mzn-stat: nodes=58364
%%%mzn-stat: restarts=48
%%%mzn-stat: peakDepth=567
%%%mzn-stat: solveTime=6.839144055
%%%mzn-stat: variables=1572
%%%mzn-stat: propagators=2426
%%%mzn-stat: failures=26196
%%%mzn-stat: propagations=7477750
%%%mzn-stat: nogoods=26196
%%%mzn-stat: AverageConflictSize=19.93991449076195
%%%mzn-stat: NumUnitNogoodsLearned=200
%%%mzn-stat: AverageLearnedNogoodLength=79.75496258970836
%%%mzn-stat: AverageBacktrackAmount=0
%%%mzn-stat: AverageLbd=14.443159260955872
%%%mzn-stat-end
maxleg = 255;
succ = array1d(1..50,[16, 25, 31, 2, 4, 50, 6, 10, 29, 30, 36, 32, 34, 40, 5, 41, 27, 3, 1, 13, 23, 35, 48, 9, 43, 11, 28, 42, 49, 33, 26, 14, 19, 44, 38, 8, 21, 45, 15, 20, 24, 37, 12, 22, 7, 17, 39, 47, 46, 18]);
% time elapsed: 7.29 s
----------
%%%mzn-stat: initTime=0.04535406
%%%mzn-stat: objective=254
%%%mzn-stat: nodes=59057
%%%mzn-stat: restarts=49
%%%mzn-stat: peakDepth=567
%%%mzn-stat: solveTime=6.8598931069999995
%%%mzn-stat: variables=1572
%%%mzn-stat: propagators=2426
%%%mzn-stat: failures=26248
%%%mzn-stat: propagations=7499186
%%%mzn-stat: nogoods=26248
%%%mzn-stat: AverageConflictSize=19.92056537640963
%%%mzn-stat: NumUnitNogoodsLearned=200
%%%mzn-stat: AverageLearnedNogoodLength=79.73022706491923
%%%mzn-stat: AverageBacktrackAmount=0
%%%mzn-stat: AverageLbd=14.450891496494972
%%%mzn-stat-end
maxleg = 254;
succ = array1d(1..50,[16, 25, 31, 2, 4, 50, 6, 10, 29, 30, 36, 32, 34, 20, 5, 41, 27, 3, 1, 13, 23, 35, 48, 9, 43, 11, 28, 42, 49, 33, 26, 47, 19, 44, 38, 8, 21, 45, 15, 14, 24, 37, 12, 22, 7, 17, 40, 39, 46, 18]);
% time elapsed: 7.32 s
----------
%%%mzn-stat: initTime=0.04535406
%%%mzn-stat: objective=253
%%%mzn-stat: nodes=59677
%%%mzn-stat: restarts=50
%%%mzn-stat: peakDepth=567
%%%mzn-stat: solveTime=6.881353335
%%%mzn-stat: variables=1572
%%%mzn-stat: propagators=2426
%%%mzn-stat: failures=26325
%%%mzn-stat: propagations=7522888
%%%mzn-stat: nogoods=26325
%%%mzn-stat: AverageConflictSize=19.896068376068374
%%%mzn-stat: NumUnitNogoodsLearned=200
%%%mzn-stat: AverageLearnedNogoodLength=79.67536562203229
%%%mzn-stat: AverageBacktrackAmount=0
%%%mzn-stat: AverageLbd=14.460854700854702
%%%mzn-stat-end
maxleg = 253;
succ = array1d(1..50,[16, 25, 31, 2, 4, 50, 6, 10, 29, 30, 36, 32, 34, 20, 5, 41, 27, 3, 1, 13, 23, 35, 48, 9, 43, 11, 28, 42, 49, 33, 26, 47, 19, 44, 38, 8, 21, 45, 15, 14, 24, 37, 12, 22, 7, 17, 40, 39, 46, 18]);
% time elapsed: 7.34 s
----------
%%%mzn-stat: initTime=0.04535406
%%%mzn-stat: objective=252
%%%mzn-stat: nodes=60397
%%%mzn-stat: restarts=51
%%%mzn-stat: peakDepth=567
%%%mzn-stat: solveTime=6.919913579
%%%mzn-stat: variables=1572
%%%mzn-stat: propagators=2426
%%%mzn-stat: failures=26448
%%%mzn-stat: propagations=7562312
%%%mzn-stat: nogoods=26448
%%%mzn-stat: AverageConflictSize=19.872844827586206
%%%mzn-stat: NumUnitNogoodsLearned=200
%%%mzn-stat: AverageLearnedNogoodLength=79.72364640048397
%%%mzn-stat: AverageBacktrackAmount=0
%%%mzn-stat: AverageLbd=14.473419540229886
%%%mzn-stat-end
maxleg = 252;
succ = array1d(1..50,[16, 25, 31, 2, 4, 50, 6, 10, 29, 30, 36, 32, 34, 20, 5, 41, 27, 3, 1, 13, 23, 35, 48, 9, 43, 11, 28, 42, 49, 33, 26, 47, 19, 44, 38, 8, 21, 45, 15, 14, 24, 37, 12, 22, 7, 17, 40, 39, 46, 18]);
% time elapsed: 7.38 s
----------
%%%mzn-stat: initTime=0.04535406
%%%mzn-stat: objective=251
%%%mzn-stat: nodes=66351
%%%mzn-stat: restarts=52
%%%mzn-stat: peakDepth=567
%%%mzn-stat: solveTime=8.028190318
%%%mzn-stat: variables=1572
%%%mzn-stat: propagators=2426
%%%mzn-stat: failures=30803
%%%mzn-stat: propagations=8480289
%%%mzn-stat: nogoods=30803
%%%mzn-stat: AverageConflictSize=20.39733142875694
%%%mzn-stat: NumUnitNogoodsLearned=200
%%%mzn-stat: AverageLearnedNogoodLength=80.51904035321235
%%%mzn-stat: AverageBacktrackAmount=0
%%%mzn-stat: AverageLbd=14.181605687757687
%%%mzn-stat-end
maxleg = 251;
succ = array1d(1..50,[16, 25, 31, 2, 4, 50, 6, 10, 29, 30, 36, 32, 34, 20, 5, 41, 27, 3, 1, 13, 23, 35, 48, 9, 43, 11, 28, 42, 49, 33, 26, 47, 19, 44, 38, 8, 21, 45, 15, 14, 24, 37, 12, 22, 7, 17, 40, 39, 46, 18]);
% time elapsed: 8.49 s
----------
%%%mzn-stat: initTime=0.04535406
%%%mzn-stat: objective=250
%%%mzn-stat: nodes=66976
%%%mzn-stat: restarts=53
%%%mzn-stat: peakDepth=567
%%%mzn-stat: solveTime=8.058984519
%%%mzn-stat: variables=1572
%%%mzn-stat: propagators=2426
%%%mzn-stat: failures=30855
%%%mzn-stat: propagations=8500984
%%%mzn-stat: nogoods=30855
%%%mzn-stat: AverageConflictSize=20.43166423594231
%%%mzn-stat: NumUnitNogoodsLearned=200
%%%mzn-stat: AverageLearnedNogoodLength=80.64757737805866
%%%mzn-stat: AverageBacktrackAmount=0
%%%mzn-stat: AverageLbd=14.192254091719333
%%%mzn-stat-end
maxleg = 250;
succ = array1d(1..50,[16, 25, 31, 2, 4, 50, 6, 10, 29, 30, 36, 32, 34, 20, 5, 41, 27, 3, 1, 13, 23, 35, 48, 9, 43, 11, 28, 42, 49, 33, 26, 47, 19, 44, 38, 8, 21, 45, 15, 14, 24, 37, 12, 22, 7, 17, 40, 39, 46, 18]);
% time elapsed: 8.53 s
----------
%%%mzn-stat: initTime=0.04535406
%%%mzn-stat: objective=249
%%%mzn-stat: nodes=67746
%%%mzn-stat: restarts=54
%%%mzn-stat: peakDepth=567
%%%mzn-stat: solveTime=8.100533386
%%%mzn-stat: variables=1572
%%%mzn-stat: propagators=2426
%%%mzn-stat: failures=30942
%%%mzn-stat: propagations=8529827
%%%mzn-stat: nogoods=30942
%%%mzn-stat: AverageConflictSize=20.476601383233145
%%%mzn-stat: NumUnitNogoodsLearned=200
%%%mzn-stat: AverageLearnedNogoodLength=80.82573847844354
%%%mzn-stat: AverageBacktrackAmount=0
%%%mzn-stat: AverageLbd=14.19698144916295
%%%mzn-stat-end
maxleg = 249;
succ = array1d(1..50,[16, 25, 31, 2, 4, 50, 6, 10, 29, 30, 36, 32, 34, 20, 5, 41, 27, 3, 1, 13, 23, 35, 48, 9, 43, 11, 28, 42, 49, 33, 26, 47, 19, 44, 38, 8, 21, 45, 15, 14, 24, 37, 12, 22, 7, 17, 40, 39, 46, 18]);
% time elapsed: 8.57 s
----------
%%%mzn-stat: initTime=0.04535406
%%%mzn-stat: objective=248
%%%mzn-stat: nodes=68461
%%%mzn-stat: restarts=55
%%%mzn-stat: peakDepth=567
%%%mzn-stat: solveTime=8.125730147
%%%mzn-stat: variables=1572
%%%mzn-stat: propagators=2426
%%%mzn-stat: failures=30996
%%%mzn-stat: propagations=8554103
%%%mzn-stat: nogoods=30996
%%%mzn-stat: AverageConflictSize=20.45863982449348
%%%mzn-stat: NumUnitNogoodsLearned=200
%%%mzn-stat: AverageLearnedNogoodLength=80.79884501225965
%%%mzn-stat: AverageBacktrackAmount=0
%%%mzn-stat: AverageLbd=14.201864756742806
%%%mzn-stat-end
maxleg = 248;
succ = array1d(1..50,[16, 25, 31, 2, 4, 50, 6, 10, 29, 30, 36, 32, 34, 20, 5, 41, 27, 3, 1, 13, 23, 35, 48, 9, 43, 11, 28, 42, 49, 33, 26, 47, 19, 44, 38, 8, 21, 45, 15, 14, 24, 37, 12, 22, 7, 17, 40, 39, 46, 18]);
% time elapsed: 8.60 s
----------
%%%mzn-stat: initTime=0.04535406
%%%mzn-stat: objective=247
%%%mzn-stat: nodes=69384
%%%mzn-stat: restarts=56
%%%mzn-stat: peakDepth=567
%%%mzn-stat: solveTime=8.202856675
%%%mzn-stat: variables=1572
%%%mzn-stat: propagators=2426
%%%mzn-stat: failures=31215
%%%mzn-stat: propagations=8609510
%%%mzn-stat: nogoods=31215
%%%mzn-stat: AverageConflictSize=20.525965080890597
%%%mzn-stat: NumUnitNogoodsLearned=200
%%%mzn-stat: AverageLearnedNogoodLength=80.88995675156175
%%%mzn-stat: AverageBacktrackAmount=0
%%%mzn-stat: AverageLbd=14.203876341502482
%%%mzn-stat-end
maxleg = 247;
succ = array1d(1..50,[16, 25, 31, 2, 4, 50, 6, 10, 29, 30, 36, 32, 34, 20, 5, 41, 27, 3, 1, 13, 23, 35, 48, 9, 43, 11, 28, 42, 49, 33, 26, 47, 19, 44, 38, 8, 21, 45, 15, 14, 24, 37, 12, 22, 7, 17, 40, 39, 46, 18]);
% time elapsed: 8.68 s
----------
%%%mzn-stat: initTime=0.04535406
%%%mzn-stat: objective=246
%%%mzn-stat: nodes=70960
%%%mzn-stat: restarts=57
%%%mzn-stat: peakDepth=567
%%%mzn-stat: solveTime=8.418720535
%%%mzn-stat: variables=1572
%%%mzn-stat: propagators=2426
%%%mzn-stat: failures=31866
%%%mzn-stat: propagations=8766391
%%%mzn-stat: nogoods=31866
%%%mzn-stat: AverageConflictSize=20.753467645766648
%%%mzn-stat: NumUnitNogoodsLearned=200
%%%mzn-stat: AverageLearnedNogoodLength=81.18508755413293
%%%mzn-stat: AverageBacktrackAmount=0
%%%mzn-stat: AverageLbd=14.194909935354296
%%%mzn-stat-end
maxleg = 246;
succ = array1d(1..50,[16, 25, 31, 2, 4, 50, 6, 10, 29, 30, 36, 32, 34, 20, 5, 41, 27, 3, 1, 13, 23, 35, 48, 9, 43, 11, 28, 42, 49, 33, 26, 47, 19, 44, 38, 8, 21, 45, 15, 14, 24, 37, 12, 22, 7, 17, 40, 39, 46, 18]);
% time elapsed: 8.90 s
----------
=====ERROR=====
% time elapsed: 911.76 s
